# Solution for model qis_1000_800_426
# Objective value = 2.9958516708533358e+02
x[0] 0
x[1] 1
x[2] 1
x[3] 0
x[4] 9.9999997858675393e-01
x[5] 1
x[6] 0
x[7] 1
x[8] 0
x[9] 1
x[10] 9.9999997358675530e-01
x[11] 9.9999996640275268e-01
x[12] 1
x[13] 1
x[14] 0
x[15] 9.9999972305842511e-01
x[16] 0
x[17] 0
x[18] 1
x[19] 3.2235870139836514e-08
x[20] 1
x[21] 0
x[22] 0
x[23] 1
x[24] 1
x[25] 0
x[26] 0
x[27] 1
x[28] 1
x[29] 0
x[30] 1
x[31] 1
x[32] 1
x[33] 9.9999991235437846e-01
x[34] 1
x[35] 2.6117266422018119e-08
x[36] 0
x[37] 1
x[38] 0
x[39] 1
x[40] 1
x[41] 1
x[42] 1
x[43] 0
x[44] 1
x[45] 1
x[46] 1
x[47] 0
x[48] 0
x[49] 1
x[50] 0
x[51] 1
x[52] 0
x[53] 0
x[54] 0
x[55] 0
x[56] 1
x[57] 9.9999976521559941e-01
x[58] 1
x[59] 4.0903289122402122e-07
x[60] 0
x[61] 0
x[62] 1
x[63] 1
x[64] 0
x[65] 1
x[66] 1
x[67] 0
x[68] 0
x[69] 0
x[70] 1
x[71] 0
x[72] 1
x[73] 1
x[74] 9.9999999999999911e-01
x[75] 0
x[76] 0
x[77] 1.0560659893231703e-07
x[78] 2.6281313741645207e-08
x[79] 1
x[80] 0
x[81] 1
x[82] 0
x[83] 0
x[84] 0
x[85] 1
x[86] 1.0000001678371981e+00
x[87] 9.9999990661031313e-01
x[88] 1
x[89] 0
x[90] 1.0000004954925694e+00
x[91] 0
x[92] 0
x[93] 1
x[94] 0
x[95] 1
x[96] 1
x[97] 1
x[98] 1
x[99] 0
x[100] 0
x[101] 2.6345573695538368e-08
x[102] 4.6934650932415341e-07
x[103] 1
x[104] 9.9999998679337776e-01
x[105] 0
x[106] 0
x[107] 1
x[108] 1
x[109] 0
x[110] 0
x[111] 1
x[112] 0
x[113] 0
x[114] 0
x[115] 0
x[116] 1
x[117] 0
x[118] 9.9999998301105930e-01
x[119] 1
x[120] 2.6250877308344138e-08
x[121] 0
x[122] 1.6944732839219440e-08
x[123] 0
x[124] 0
x[125] 1
x[126] 0
x[127] 1.0000001670572682e+00
x[128] 0
x[129] 0
x[130] 0
x[131] 0
x[132] 0
x[133] 3.6051986563261789e-08
x[134] 0
x[135] 1
x[136] 1
x[137] 0
x[138] 0
x[139] 1
x[140] 1
x[141] 0
x[142] 0
x[143] 0
x[144] 1
x[145] 1
x[146] 1
x[147] 0
x[148] 0
x[149] 1
x[150] 0
x[151] 1
x[152] 1.0000001677636070e+00
x[153] 0
x[154] 1
x[155] 1
x[156] 0
x[157] 1
x[158] 0
x[159] 1
x[160] 0
x[161] 7.0237143234967821e-09
x[162] 1
x[163] 1
x[164] 0
x[165] 1
x[166] 1
x[167] 1
x[168] -8.0623061854492928e-08
x[169] 1
x[170] 1
x[171] 1
x[172] 1
x[173] 1
x[174] 1
x[175] 1.0000000125985629e+00
x[176] 0
x[177] 0
x[178] 0
x[179] 0
x[180] 0
x[181] 1
x[182] 0
x[183] -1.6791276583343147e-07
x[184] 1
x[185] 1
x[186] 1
x[187] 1
x[188] 1
x[189] 1
x[190] 0
x[191] 1
x[192] 1
x[193] 0
x[194] 1
x[195] 0
x[196] 9.3318329561342463e-08
x[197] 0
x[198] 0
x[199] 1.3113433958728853e-08
x[200] 0
x[201] 0
x[202] 1
x[203] 1
x[204] 0
x[205] 0
x[206] 2.6235909711711197e-08
x[207] 0
x[208] 0
x[209] -1.6479474243124655e-07
x[210] 1
x[211] 1
x[212] 1
x[213] 0
x[214] 0
x[215] 1
x[216] 0
x[217] 1
x[218] 0
x[219] 1
x[220] 1
x[221] 2.6020835860701212e-08
x[222] 0
x[223] 1.0000000262074120e+00
x[224] 1
x[225] 0
x[226] 1
x[227] 1
x[228] 1
x[229] 0
x[230] 1
x[231] 1
x[232] 0
x[233] 0
x[234] 0
x[235] 1
x[236] 1.0000000838858452e+00
x[237] 1
x[238] 1
x[239] 0
x[240] 0
x[241] 0
x[242] 1
x[243] 9.9999997358675530e-01
x[244] 9.9999976854893158e-01
x[245] 1
x[246] 1
x[247] 0
x[248] 9.9999997692008746e-01
x[249] 2.6252773613558371e-08
x[250] 9.9999998634439291e-01
x[251] 1
x[252] 0
x[253] 0
x[254] 0
x[255] 0
x[256] 0
x[257] 1
x[258] 1
x[259] 0
x[260] 9.9999997358675408e-01
x[261] 0
x[262] 1
x[263] 1
x[264] 1
x[265] 0
x[266] 0
x[267] 0
x[268] 0
x[269] 1
x[270] 0
x[271] 0
x[272] 0
x[273] 1
x[274] 0
x[275] 0
x[276] 0
x[277] 9.9999990661031291e-01
x[278] 9.9999997358675474e-01
x[279] 1
x[280] 0
x[281] 1
x[282] 0
x[283] 1
x[284] 0
x[285] 0
x[286] 0
x[287] 1
x[288] 0
x[289] 0
x[290] 1
x[291] 1
x[292] 2.6365616761324730e-08
x[293] 0
x[294] 5.2731642300967426e-08
x[295] 0
x[296] 2.6280027245598076e-08
x[297] 0.999999908168722
x[298] 0
x[299] 0
x[300] 0
x[301] 1
x[302] 0
x[303] 9.9999989768035225e-01
x[304] 0
x[305] 1
x[306] 1
x[307] 0
x[308] 0
x[309] 1
x[310] 9.9999967620413988e-01
x[311] 1
x[312] 1
x[313] 5.6021749540928959e-07
x[314] 2.8007893435558962e-07
x[315] 1
x[316] 0
x[317] 9.9999998638860055e-01
x[318] 0
x[319] 0
x[320] 6.5101506521983142e-07
x[321] 1
x[322] 1
x[323] 0
x[324] 0
x[325] 0
x[326] 0
x[327] 1
x[328] 0
x[329] 0
x[330] 1
x[331] 0
x[332] 0
x[333] 9.9999979202737088e-01
x[334] 0
x[335] 1
x[336] 1
x[337] 1.0560592911087950e-07
x[338] 1.6944123544628840e-08
x[339] 1
x[340] 0
x[341] 1
x[342] 0
x[343] 1
x[344] 1.0000001677694328e+00
x[345] 1
x[346] 1
x[347] 1
x[348] 1
x[349] 0
x[350] 0
x[351] 1
x[352] 0
x[353] 0
x[354] 1
x[355] 1
x[356] 1
x[357] 1
x[358] 1.3103042406725318e-08
x[359] -9.52719337179544e-09
x[360] 0
x[361] 1
x[362] 1
x[363] 1
x[364] 0
x[365] 9.9999989434701875e-01
x[366] 1
x[367] 0
x[368] 0
x[369] 0
x[370] 1
x[371] 0
x[372] 1
x[373] 1
x[374] 0
x[375] 0
x[376] 1
x[377] 0
x[378] 1
x[379] 0
x[380] 1
x[381] 1.4670097907610746e-09
x[382] 0
x[383] 0
x[384] 1
x[385] 0
x[386] 1
x[387] 1
x[388] 0
x[389] 1
x[390] 1
x[391] 1
x[392] 0
x[393] 0
x[394] 1
x[395] 1
x[396] 1
x[397] 0
x[398] 1
x[399] 0
x[400] 1
x[401] 0
x[402] 1
x[403] 0
x[404] 0
x[405] 1
x[406] 9.9999997692008846e-01
x[407] 0
x[408] 1
x[409] 1
x[410] 1
x[411] 1
x[412] 1
x[413] 0
x[414] 1
x[415] 1
x[416] 1
x[417] 0
x[418] 0
x[419] 0
x[420] 0
x[421] 9.9999999999999967e-01
x[422] 9.9999945163706294e-01
x[423] 2.3472078168274051e-07
x[424] 0
x[425] 1
x[426] 1
x[427] 1
x[428] 0
x[429] 0
x[430] 0
x[431] 0
x[432] 0
x[433] 0
x[434] 0
x[435] 1
x[436] 1
x[437] 1
x[438] 0
x[439] 1
x[440] 0
x[441] 1
x[442] -1.6791278813979863e-07
x[443] 1
x[444] 9.3335340902804215e-08
x[445] 1
x[446] 0
x[447] 1
x[448] 9.9999972316427321e-01
x[449] 1
x[450] 0
x[451] 9.9999942299637878e-01
x[452] 0
x[453] 9.9999997692008868e-01
x[454] 0
x[455] 1
x[456] 1
x[457] 1
x[458] 1
x[459] 0
x[460] 0
x[461] 0
x[462] 2.8003256839918381e-07
x[463] 0
x[464] 1
x[465] 0
x[466] 0
x[467] 0
x[468] 0
x[469] 0
x[470] -1.0041438323714179e-08
x[471] 1
x[472] 1
x[473] 1
x[474] 0
x[475] 3.3445832703713986e-08
x[476] 1
x[477] 0
x[478] 0
x[479] 2.6347755930218061e-08
x[480] 0
x[481] 1.0000000419080608e+00
x[482] 0
x[483] 1
x[484] 0
x[485] 1
x[486] 0
x[487] 0
x[488] -4.1978197214594553e-08
x[489] 0
x[490] 0
x[491] 0
x[492] 0
x[493] 0
x[494] 1
x[495] 1
x[496] 1
x[497] 9.9999999012671059e-01
x[498] 0
x[499] 3.0504924673488929e-07
x[500] 1.0000000838740359e+00
x[501] 0
x[502] 1
x[503] 0
x[504] 0
x[505] 0
x[506] 1
x[507] 1
x[508] 0
x[509] 0
x[510] 1
x[511] -1.1938080627337522e-08
x[512] 1
x[513] 9.9999990941957306e-01
x[514] 0
x[515] 0
x[516] 0
x[517] 1.0000000417555257e+00
x[518] 0
x[519] 1
x[520] 1.0000000126545472e+00
x[521] 1
x[522] 1
x[523] 1
x[524] 0
x[525] 1
x[526] 1
x[527] 0
x[528] 1
x[529] 5.2754282935695368e-08
x[530] 0
x[531] 1
x[532] 1
x[533] 0
x[534] 0
x[535] 1
x[536] 0
x[537] 0
x[538] 1
x[539] 1
x[540] 0
x[541] 0
x[542] 1
x[543] 1
x[544] 1
x[545] 0
x[546] 0
x[547] 0
x[548] 1
x[549] 0
x[550] 0
x[551] 0
x[552] 1.6784584512678019e-07
x[553] 1
x[554] 1
x[555] 6.5104230662363758e-07
x[556] 2.6328888393930209e-08
x[557] 0
x[558] 1
x[559] 1.6846667132692845e-08
x[560] 0
x[561] 0
x[562] 0
x[563] 2.3469121663141127e-07
x[564] 1
x[565] 1
x[566] 0
x[567] 0
x[568] 1
x[569] 1
x[570] 0
x[571] 1
x[572] 0
x[573] 1
x[574] 1
x[575] 1
x[576] 0
x[577] 0
x[578] 0
x[579] 1
x[580] 9.9999967444627980e-01
x[581] 0
x[582] 0
x[583] 1.6267959967847739e-07
x[584] 0
x[585] 1
x[586] 1
x[587] 0
x[588] 0
x[589] 1
x[590] 1
x[591] 0
x[592] 1
x[593] 1
x[594] 0
x[595] 0
x[596] 1
x[597] 1
x[598] 1
x[599] 0
x[600] 9.9999998634439269e-01
x[601] 1
x[602] 7.0372235771877178e-08
x[603] 0
x[604] 1
x[605] 0
x[606] 0
x[607] 0
x[608] 0
x[609] 0
x[610] 1
x[611] 0
x[612] 0
x[613] 1
x[614] 2.1802859926135579e-08
x[615] 1
x[616] 1
x[617] 2.0244921599403707e-08
x[618] 0
x[619] 0
x[620] 0
x[621] 0
x[622] 0
x[623] 1
x[624] 0
x[625] 0
x[626] 1
x[627] 0
x[628] 0
x[629] 1
x[630] 0
x[631] 9.9999996277013570e-01
x[632] 2.6167970537458350e-08
x[633] 0
x[634] 1
x[635] 1
x[636] 1
x[637] 1
x[638] 0
x[639] 9.9999997692008824e-01
x[640] 1
x[641] 1
x[642] 2.6399971278153421e-07
x[643] 9.9999998608798168e-01
x[644] 1
x[645] 1
x[646] 1
x[647] 1
x[648] 0
x[649] 1
x[650] 1
x[651] 1
x[652] 1
x[653] 0
x[654] 0
x[655] 0
x[656] 1
x[657] 0
x[658] 9.9999997692008780e-01
x[659] 2.6069144731989746e-08
x[660] 0
x[661] 9.9999997798896290e-01
x[662] 1
x[663] 8.1136017231308923e-08
x[664] 1
x[665] 0
x[666] 1
x[667] 1
x[668] 0
x[669] 1
x[670] 0
x[671] 2.6368675316364955e-08
x[672] 0
x[673] 1
x[674] 0
x[675] 1.0000001678618831e+00
x[676] 0
x[677] 9.9999998638860055e-01
x[678] 1
x[679] 0
x[680] 1
x[681] 0
x[682] 0
x[683] 0
x[684] 1
x[685] 1
x[686] 1
x[687] 9.9999999625460823e-01
x[688] 0
x[689] 1
x[690] 0
x[691] 0
x[692] 1
x[693] 1
x[694] 0
x[695] 0.999999996309619
x[696] 1
x[697] 1
x[698] 0
x[699] 1
x[700] 0
x[701] 0
x[702] 0
x[703] 1
x[704] 0
x[705] -1.0579741821522465e-08
x[706] -1.6791278900498416e-07
x[707] 1
x[708] 1
x[709] 0
x[710] 9.9999997692008868e-01
x[711] 1
x[712] 1
x[713] 1
x[714] 1
x[715] 0
x[716] 1
x[717] 9.9999989434704772e-01
x[718] 1
x[719] 1
x[720] 0
x[721] 0
x[722] 9.9999983722313979e-01
x[723] 0
x[724] 1
x[725] 0
x[726] 0
x[727] 1
x[728] 1.4034451935099813e-08
x[729] 1
x[730] 0
x[731] 1
x[732] 1
x[733] 1
x[734] 1
x[735] 0
x[736] 1
x[737] 1
x[738] 2.0318665438490190e-08
x[739] 9.9999998294660541e-01
x[740] 0
x[741] 1
x[742] 9.9999997358675530e-01
x[743] 0
x[744] 1
x[745] 1
x[746] 1
x[747] 1
x[748] 1.6795744419023839e-08
x[749] 2.6343445891779808e-08
x[750] 0
x[751] 0
x[752] 1
x[753] 0
x[754] 0
x[755] 0
x[756] 9.9999934889255992e-01
x[757] 1
x[758] 0
x[759] 0
x[760] 0
x[761] 9.3333301141062193e-08
x[762] 0
x[763] 1
x[764] 1
x[765] 0
x[766] 0
x[767] 1
x[768] 1
x[769] 0
x[770] 2.6332297107977592e-08
x[771] -8.3956393541010727e-08
x[772] 0
x[773] 0
x[774] 0
x[775] 1
x[776] 0
x[777] 1
x[778] 1
x[779] 0
x[780] 0
x[781] 1
x[782] 1
x[783] 1
x[784] 0
x[785] 1
x[786] 1
x[787] 1
x[788] 0
x[789] 0
x[790] 0
x[791] 1
x[792] 2.6332067975650449e-08
x[793] 0
x[794] 0
x[795] 0
x[796] 0
x[797] 9.9999998301105930e-01
x[798] 1
x[799] 0
x[800] 1
x[801] 0
x[802] 1
x[803] 1
x[804] 0
x[805] 1
x[806] 0
x[807] 1
x[808] -1.6791276583343023e-07
x[809] 0
x[810] 1
x[811] 9.9999994897291644e-01
x[812] 1
x[813] 1
x[814] 1
x[815] 0
x[816] 2.6211640276652122e-08
x[817] 1
x[818] 1
x[819] 0
x[820] 0
x[821] 0
x[822] 0
x[823] 1
x[824] 0
x[825] -1.6791278852439119e-07
x[826] 0
x[827] 0
x[828] 0
x[829] 0
x[830] 0
x[831] 1
x[832] 1
x[833] 0
x[834] 0
x[835] 1
x[836] 1
x[837] 0
x[838] 1
x[839] 0
x[840] 1
x[841] 0
x[842] 1
x[843] 0
x[844] 1
x[845] 0
x[846] 1
x[847] 1
x[848] 0
x[849] 1
x[850] 0
x[851] 1
x[852] 0
x[853] 1
x[854] 1.0000001678629318e+00
x[855] 1
x[856] 2.6344449393945291e-08
x[857] 1
x[858] 0
x[859] 1
x[860] 1
x[861] 1
x[862] 1
x[863] 9.9999992956467953e-01
x[864] 1
x[865] 1
x[866] 0
x[867] 0
x[868] 0
x[869] 1
x[870] 0
x[871] 2.8000293938532046e-07
x[872] 2.63640169910022e-08
x[873] 0
x[874] 1.0000000074825763e+00
x[875] 0.999999594300442
x[876] 1
x[877] 0
x[878] 0
x[879] 1
x[880] 0
x[881] 0
x[882] 1
x[883] 9.9999997358675408e-01
x[884] 1
x[885] 1
x[886] 0
x[887] 0
x[888] 0
x[889] 0
x[890] 0
x[891] 1
x[892] 0
x[893] 0
x[894] 1
x[895] 1
x[896] 0
x[897] 1
x[898] 9.9999999999999956e-01
x[899] 0
x[900] 1.0000000152001229e+00
x[901] 1
x[902] 1
x[903] 1
x[904] 1
x[905] 0
x[906] 1
x[907] 0
x[908] 1
x[909] 6.8980885450618e-07
x[910] 0
x[911] 1
x[912] 0
x[913] 0
x[914] 0
x[915] 0.999999929595601
x[916] 1
x[917] 9.9999987265043266e-01
x[918] 0
x[919] 1
x[920] 0
x[921] 0
x[922] 0
x[923] 1
x[924] 1
x[925] 1
x[926] 0
x[927] 0.999999977004445
x[928] 1
x[929] 0
x[930] 0
x[931] 0
x[932] 0
x[933] 0
x[934] 0
x[935] 3.2545280128978394e-07
x[936] 0
x[937] 1
x[938] 1.6846361564614646e-08
x[939] 1
x[940] 1
x[941] 0
x[942] 0
x[943] 1
x[944] 1
x[945] 2.1114687429679865e-07
x[946] 0
x[947] 0
x[948] 0
x[949] 1
x[950] 1
x[951] 1
x[952] 1.00000016730826
x[953] 1
x[954] 1
x[955] 9.9999992588524711e-01
x[956] 0
x[957] 1
x[958] 1
x[959] 0
x[960] 1.6848949034632472e-08
x[961] 0.999999989175883
x[962] 0
x[963] 1
x[964] 1
x[965] 1
x[966] 1
x[967] 1
x[968] 0
x[969] 9.34851253770879e-08
x[970] 0
x[971] 1
x[972] 1
x[973] 1
x[974] 0
x[975] 0
x[976] 3.9245962585391154e-08
x[977] 1
x[978] 9.3783499005240616e-08
x[979] 0.999999973586755
x[980] 2.6348296245058067e-08
x[981] 0
x[982] 1
x[983] 1
x[984] 1
x[985] 1
x[986] 1
x[987] 0
x[988] 1
x[989] 9.9999998993781147e-01
x[990] 1
x[991] 0
x[992] 0
x[993] 1
x[994] 0
x[995] 0
x[996] 1
x[997] 1
x[998] 1
x[999] 0
